(declare-fun cmp125.not.i_23_92 () (_ BitVec 1))
(declare-fun src_reg1.sroa.45.0.copyload_23_38 () (_ BitVec 64))
(declare-fun tobool.not.i.i_23_47 () (_ BitVec 1))
(declare-fun or.cond81.i_23_56 () (_ BitVec 1))
(declare-fun src_reg_23_301 () (_ BitVec 8))
(declare-fun src_reg_23_265 () (_ BitVec 8))
(declare-fun src_reg_23_300 () (_ BitVec 32))
(declare-fun src_reg_23_264 () (_ BitVec 32))
(declare-fun src_reg_23_299 () (_ BitVec 32))
(declare-fun src_reg_23_263 () (_ BitVec 32))
(declare-fun src_reg_23_298 () (_ BitVec 32))
(declare-fun src_reg_23_262 () (_ BitVec 32))
(declare-fun src_reg_23_297 () (_ BitVec 32))
(declare-fun src_reg_23_261 () (_ BitVec 32))
(declare-fun src_reg_23_296 () (_ BitVec 32))
(declare-fun src_reg_23_260 () (_ BitVec 32))
(declare-fun src_reg_23_295 () (_ BitVec 32))
(declare-fun src_reg_23_259 () (_ BitVec 32))
(declare-fun src_reg_23_294 () (_ BitVec 32))
(declare-fun src_reg_23_258 () (_ BitVec 32))
(declare-fun src_reg_23_293 () (_ BitVec 32))
(declare-fun src_reg_23_257 () (_ BitVec 32))
(declare-fun src_reg_23_292 () (_ BitVec 32))
(declare-fun src_reg_23_256 () (_ BitVec 32))
(declare-fun src_reg_23_291 () (_ BitVec 64))
(declare-fun src_reg_23_255 () (_ BitVec 64))
(declare-fun src_reg_23_290 () (_ BitVec 64))
(declare-fun src_reg_23_254 () (_ BitVec 64))
(declare-fun src_reg_23_289 () (_ BitVec 64))
(declare-fun src_reg_23_253 () (_ BitVec 64))
(declare-fun src_reg_23_288 () (_ BitVec 64))
(declare-fun src_reg_23_252 () (_ BitVec 64))
(declare-fun src_reg_23_287 () (_ BitVec 64))
(declare-fun src_reg_23_251 () (_ BitVec 64))
(declare-fun src_reg_23_286 () (_ BitVec 64))
(declare-fun src_reg_23_250 () (_ BitVec 64))
(declare-fun src_reg_23_285 () (_ BitVec 32))
(declare-fun src_reg_23_249 () (_ BitVec 32))
(declare-fun src_reg_23_284 () (_ BitVec 32))
(declare-fun src_reg_23_248 () (_ BitVec 32))
(declare-fun dst_reg_23_283 () (_ BitVec 8))
(declare-fun dst_reg_23_247 () (_ BitVec 8))
(declare-fun dst_reg_23_282 () (_ BitVec 32))
(declare-fun dst_reg_23_246 () (_ BitVec 32))
(declare-fun dst_reg_23_281 () (_ BitVec 32))
(declare-fun dst_reg_23_245 () (_ BitVec 32))
(declare-fun dst_reg_23_280 () (_ BitVec 32))
(declare-fun dst_reg_23_244 () (_ BitVec 32))
(declare-fun dst_reg_23_279 () (_ BitVec 32))
(declare-fun dst_reg_23_243 () (_ BitVec 32))
(declare-fun dst_reg_23_278 () (_ BitVec 32))
(declare-fun dst_reg_23_242 () (_ BitVec 32))
(declare-fun dst_reg_23_277 () (_ BitVec 32))
(declare-fun dst_reg_23_241 () (_ BitVec 32))
(declare-fun dst_reg_23_276 () (_ BitVec 32))
(declare-fun dst_reg_23_240 () (_ BitVec 32))
(declare-fun dst_reg_23_275 () (_ BitVec 32))
(declare-fun dst_reg_23_239 () (_ BitVec 32))
(declare-fun dst_reg_23_274 () (_ BitVec 32))
(declare-fun dst_reg_23_238 () (_ BitVec 32))
(declare-fun dst_reg_23_273 () (_ BitVec 64))
(declare-fun dst_reg_23_237 () (_ BitVec 64))
(declare-fun dst_reg_23_272 () (_ BitVec 64))
(declare-fun dst_reg_23_236 () (_ BitVec 64))
(declare-fun dst_reg_23_271 () (_ BitVec 64))
(declare-fun dst_reg_23_235 () (_ BitVec 64))
(declare-fun dst_reg_23_270 () (_ BitVec 64))
(declare-fun dst_reg_23_234 () (_ BitVec 64))
(declare-fun dst_reg_23_269 () (_ BitVec 64))
(declare-fun dst_reg_23_233 () (_ BitVec 64))
(declare-fun dst_reg_23_268 () (_ BitVec 64))
(declare-fun dst_reg_23_232 () (_ BitVec 64))
(declare-fun dst_reg_23_267 () (_ BitVec 32))
(declare-fun dst_reg_23_231 () (_ BitVec 32))
(declare-fun dst_reg_23_266 () (_ BitVec 32))
(declare-fun dst_reg_23_230 () (_ BitVec 32))
(declare-fun dst_reg_23_16 () (_ BitVec 32))
(declare-fun dst_reg_23_15 () (_ BitVec 32))
(declare-fun dst_reg_23_1 () (_ BitVec 32))
(declare-fun src_reg_23_35 () (_ BitVec 8))
(declare-fun src_reg_23_34 () (_ BitVec 32))
(declare-fun src_reg_23_33 () (_ BitVec 32))
(declare-fun src_reg_23_32 () (_ BitVec 32))
(declare-fun src_reg_23_31 () (_ BitVec 32))
(declare-fun src_reg_23_30 () (_ BitVec 32))
(declare-fun src_reg_23_29 () (_ BitVec 32))
(declare-fun src_reg_23_28 () (_ BitVec 32))
(declare-fun src_reg_23_27 () (_ BitVec 32))
(declare-fun src_reg_23_26 () (_ BitVec 32))
(declare-fun src_reg_23_25 () (_ BitVec 64))
(declare-fun src_reg_23_24 () (_ BitVec 64))
(declare-fun src_reg_23_23 () (_ BitVec 64))
(declare-fun src_reg_23_22 () (_ BitVec 64))
(declare-fun src_reg_23_21 () (_ BitVec 64))
(declare-fun src_reg_23_20 () (_ BitVec 64))
(declare-fun src_reg_23_19 () (_ BitVec 32))
(declare-fun or.cond82.i_23_60 () (_ BitVec 1))
(declare-fun dst_reg_23_207 () (_ BitVec 8))
(declare-fun dst_reg_23_206 () (_ BitVec 32))
(declare-fun dst_reg_23_205 () (_ BitVec 32))
(declare-fun dst_reg_23_204 () (_ BitVec 32))
(declare-fun dst_reg_23_203 () (_ BitVec 32))
(declare-fun dst_reg_23_202 () (_ BitVec 32))
(declare-fun dst_reg_23_201 () (_ BitVec 32))
(declare-fun dst_reg_23_200 () (_ BitVec 32))
(declare-fun dst_reg_23_199 () (_ BitVec 32))
(declare-fun dst_reg_23_198 () (_ BitVec 32))
(declare-fun dst_reg_23_197 () (_ BitVec 64))
(declare-fun dst_reg_23_196 () (_ BitVec 64))
(declare-fun .sink.i.i1070.i_23_228 () (_ BitVec 64))
(declare-fun dst_reg_23_194 () (_ BitVec 64))
(declare-fun dst_reg_23_193 () (_ BitVec 64))
(declare-fun dst_reg_23_192 () (_ BitVec 64))
(declare-fun dst_reg_23_191 () (_ BitVec 32))
(declare-fun dst_reg_23_190 () (_ BitVec 32))
(declare-fun src_reg_23_225 () (_ BitVec 8))
(declare-fun src_reg_23_224 () (_ BitVec 32))
(declare-fun src_reg_23_223 () (_ BitVec 32))
(declare-fun src_reg_23_222 () (_ BitVec 32))
(declare-fun src_reg_23_221 () (_ BitVec 32))
(declare-fun src_reg_23_220 () (_ BitVec 32))
(declare-fun src_reg_23_219 () (_ BitVec 32))
(declare-fun src_reg_23_218 () (_ BitVec 32))
(declare-fun src_reg_23_217 () (_ BitVec 32))
(declare-fun src_reg_23_216 () (_ BitVec 32))
(declare-fun src_reg_23_215 () (_ BitVec 64))
(declare-fun src_reg_23_214 () (_ BitVec 64))
(declare-fun src_reg_23_213 () (_ BitVec 64))
(declare-fun src_reg_23_212 () (_ BitVec 64))
(declare-fun src_reg_23_211 () (_ BitVec 64))
(declare-fun src_reg_23_210 () (_ BitVec 64))
(declare-fun src_reg_23_209 () (_ BitVec 32))
(declare-fun src_reg_23_208 () (_ BitVec 32))
(declare-fun cmp.i.i.i1065.i_23_183 () (_ BitVec 1))
(declare-fun cmp.i1.i.i.i_23_186 () (_ BitVec 1))
(declare-fun if.then.i.i1068.i_zext_32_to_64.exit.i_23_227 () Bool)
(declare-fun if.else.i.i1069.i_zext_32_to_64.exit.i_23_226 () Bool)
(declare-fun dst_reg_23_152 () (_ BitVec 8))
(declare-fun dst_reg_23_151 () (_ BitVec 32))
(declare-fun dst_reg_23_150 () (_ BitVec 32))
(declare-fun dst_reg_23_149 () (_ BitVec 32))
(declare-fun dst_reg_23_148 () (_ BitVec 32))
(declare-fun dst_reg_23_147 () (_ BitVec 32))
(declare-fun dst_reg_23_146 () (_ BitVec 32))
(declare-fun dst_reg_23_145 () (_ BitVec 32))
(declare-fun dst_reg_23_144 () (_ BitVec 32))
(declare-fun dst_reg_23_143 () (_ BitVec 32))
(declare-fun conv1.i.i.i_23_180 () (_ BitVec 64))
(declare-fun conv.i.i1058.i_23_178 () (_ BitVec 64))
(declare-fun dst_reg_23_195 () (_ BitVec 64))
(declare-fun dst_reg_23_140 () (_ BitVec 64))
(declare-fun and6.i.i.i1053.i_23_176 () (_ BitVec 64))
(declare-fun and.i.i.i1052.i_23_174 () (_ BitVec 64))
(declare-fun dst_reg_23_136 () (_ BitVec 32))
(declare-fun dst_reg_23_135 () (_ BitVec 32))
(declare-fun src_reg_23_170 () (_ BitVec 8))
(declare-fun src_reg_23_169 () (_ BitVec 32))
(declare-fun src_reg_23_168 () (_ BitVec 32))
(declare-fun src_reg_23_167 () (_ BitVec 32))
(declare-fun src_reg_23_166 () (_ BitVec 32))
(declare-fun src_reg_23_165 () (_ BitVec 32))
(declare-fun src_reg_23_164 () (_ BitVec 32))
(declare-fun src_reg_23_163 () (_ BitVec 32))
(declare-fun src_reg_23_162 () (_ BitVec 32))
(declare-fun src_reg_23_161 () (_ BitVec 32))
(declare-fun src_reg_23_160 () (_ BitVec 64))
(declare-fun src_reg_23_159 () (_ BitVec 64))
(declare-fun src_reg_23_158 () (_ BitVec 64))
(declare-fun src_reg_23_157 () (_ BitVec 64))
(declare-fun src_reg_23_156 () (_ BitVec 64))
(declare-fun src_reg_23_155 () (_ BitVec 64))
(declare-fun src_reg_23_154 () (_ BitVec 32))
(declare-fun src_reg_23_153 () (_ BitVec 32))
(declare-fun conv6.i.i.i_23_187 () (_ BitVec 64))
(declare-fun conv8.i.i.i_23_188 () (_ BitVec 64))
(declare-fun i14.i.i.i_23_184 () (_ BitVec 32))
(declare-fun dst_reg_23_17 () (_ BitVec 8))
(declare-fun dst_reg_23_14 () (_ BitVec 32))
(declare-fun dst_reg_23_13 () (_ BitVec 32))
(declare-fun dst_reg_23_12 () (_ BitVec 32))
(declare-fun dst_reg_23_142 () (_ BitVec 64))
(declare-fun dst_reg_23_141 () (_ BitVec 64))
(declare-fun dst_reg_23_139 () (_ BitVec 64))
(declare-fun dst_reg_23_138 () (_ BitVec 64))
(declare-fun dst_reg_23_137 () (_ BitVec 64))
(declare-fun and.i.i.i.i934.i3132_23_134 () (_ BitVec 32))
(declare-fun shr.i.i921.i_23_113 () (_ BitVec 32))
(declare-fun cond14.i.i950.i_23_133 () (_ BitVec 32))
(declare-fun cond.i.i944.i_23_128 () (_ BitVec 32))
(declare-fun conv10.i.i.i_23_117 () (_ BitVec 64))
(declare-fun conv5.i.i.i_23_114 () (_ BitVec 64))
(declare-fun i13.i.i1064.i_23_181 () (_ BitVec 32))
(declare-fun i12.i.i1061.i_23_179 () (_ BitVec 32))
(declare-fun i.i.i1057.i_23_177 () (_ BitVec 32))
(declare-fun i6.i.i_23_172 () (_ BitVec 64))
(declare-fun i4.i.i_23_171 () (_ BitVec 64))
(declare-fun cmp24.i_23_54 () (_ BitVec 1))
(declare-fun or.cond80.i_23_53 () (_ BitVec 1))
(declare-fun src_reg1.sroa.70.0.copyload_23_42 () (_ BitVec 32))
(declare-fun src_reg1.sroa.62.0.copyload_23_41 () (_ BitVec 32))
(declare-fun or.cond79.i_23_51 () (_ BitVec 1))
(declare-fun cmp21.i_23_52 () (_ BitVec 1))
(declare-fun src_reg1.sroa.59.0.copyload_23_40 () (_ BitVec 32))
(declare-fun src_reg1.sroa.52.0.copyload_23_39 () (_ BitVec 32))
(declare-fun cmp18.not.i_23_49 () (_ BitVec 1))
(declare-fun cmp16.not.i_23_48 () (_ BitVec 1))
(declare-fun shr9.i.i.i_23_116 () (_ BitVec 32))
(declare-fun or6.i.i948.i_23_131 () (_ BitVec 32))
(declare-fun shr3.i.i_23_107 () (_ BitVec 32))
(declare-fun cmp9.i.i949.i_23_132 () (_ BitVec 1))
(declare-fun and5.i.i947.i_23_130 () (_ BitVec 32))
(declare-fun or.i.i941.i_23_126 () (_ BitVec 32))
(declare-fun shr.i910.i_23_105 () (_ BitVec 32))
(declare-fun cmp.i.i943.i_23_127 () (_ BitVec 1))
(declare-fun and.i.i940.i_23_125 () (_ BitVec 32))
(declare-fun conv4.i.i.i_23_112 () (_ BitVec 32))
(declare-fun conv7.i.i922.i_23_115 () (_ BitVec 32))
(declare-fun i18.i916.i_23_109 () (_ BitVec 64))
(declare-fun conv3.i.i.i_23_110 () (_ BitVec 32))
(declare-fun i16.i914.i_23_108 () (_ BitVec 64))
(declare-fun dst_reg_23_3 () (_ BitVec 64))
(declare-fun dst_reg_23_2 () (_ BitVec 64))
(declare-fun i14.i912.i_23_106 () (_ BitVec 32))
(declare-fun dst_reg_23_9 () (_ BitVec 32))
(declare-fun i13.i909.i_23_104 () (_ BitVec 32))
(declare-fun dst_reg_23_8 () (_ BitVec 32))
(declare-fun cmp24.old.i_23_58 () (_ BitVec 1))
(declare-fun cmp21.old.i_23_57 () (_ BitVec 1))
(declare-fun and6.i.i.i.i_23_45 () (_ BitVec 64))
(declare-fun src_reg1.sroa.13.0.copyload_23_43 () (_ BitVec 64))
(declare-fun src_reg_23_18 () (_ BitVec 32))
(declare-fun dst_reg_23_11 () (_ BitVec 32))
(declare-fun dst_reg_23_10 () (_ BitVec 32))
(declare-fun dst_reg_23_7 () (_ BitVec 64))
(declare-fun dst_reg_23_6 () (_ BitVec 64))
(declare-fun dst_reg_23_5 () (_ BitVec 64))
(declare-fun dst_reg_23_4 () (_ BitVec 64))
(declare-fun dst_reg_23_0 () (_ BitVec 32))
(assert (let ((a!1 (=> (= tobool.not.i.i_23_47 #b0)
               (and (ite (bvsgt src_reg1.sroa.52.0.copyload_23_39
                                src_reg1.sroa.59.0.copyload_23_40)
                         (= cmp21.old.i_23_57 #b1)
                         (= cmp21.old.i_23_57 #b0))
                    (ite (bvugt src_reg1.sroa.62.0.copyload_23_41
                                src_reg1.sroa.70.0.copyload_23_42)
                         (= cmp24.old.i_23_58 #b1)
                         (= cmp24.old.i_23_58 #b0))
                    (ite (= cmp21.old.i_23_57 #b1)
                         (= or.cond82.i_23_60 #b1)
                         (= or.cond82.i_23_60 cmp24.old.i_23_58)))))
      (a!2 (and (= cmp125.not.i_23_92 #b1)
                (and (= or.cond81.i_23_56 #b0) (= tobool.not.i.i_23_47 #b1))))
      (a!4 (=> (= tobool.not.i.i_23_47 #b1)
               (and (ite (distinct src_reg1.sroa.52.0.copyload_23_39
                                   src_reg1.sroa.59.0.copyload_23_40)
                         (= cmp16.not.i_23_48 #b1)
                         (= cmp16.not.i_23_48 #b0))
                    (ite (distinct src_reg1.sroa.62.0.copyload_23_41
                                   src_reg1.sroa.70.0.copyload_23_42)
                         (= cmp18.not.i_23_49 #b1)
                         (= cmp18.not.i_23_49 #b0))
                    (ite (= cmp16.not.i_23_48 #b1)
                         (= or.cond79.i_23_51 #b1)
                         (= or.cond79.i_23_51 cmp18.not.i_23_49))
                    (ite (bvsgt src_reg1.sroa.52.0.copyload_23_39
                                src_reg1.sroa.59.0.copyload_23_40)
                         (= cmp21.i_23_52 #b1)
                         (= cmp21.i_23_52 #b0))
                    (= or.cond80.i_23_53 (bvor cmp21.i_23_52 or.cond79.i_23_51))
                    (ite (bvugt src_reg1.sroa.62.0.copyload_23_41
                                src_reg1.sroa.70.0.copyload_23_42)
                         (= cmp24.i_23_54 #b1)
                         (= cmp24.i_23_54 #b0))
                    (ite (= or.cond80.i_23_53 #b1)
                         (= or.cond81.i_23_56 #b1)
                         (= or.cond81.i_23_56 cmp24.i_23_54)))))
      (a!5 (and (= cmp125.not.i_23_92 #b0)
                (and (= or.cond81.i_23_56 #b0) (= tobool.not.i.i_23_47 #b1))))
      (a!12 (or (and (= or.cond82.i_23_60 #b1) (= tobool.not.i.i_23_47 #b0))
                (and (= or.cond81.i_23_56 #b1) (= tobool.not.i.i_23_47 #b1))))
      (a!13 (and (= #x00000001 src_reg_23_248)
                 (= src_reg_23_19 src_reg_23_249)
                 (= src_reg_23_20 src_reg_23_250)
                 (= src_reg_23_21 src_reg_23_251)
                 (= src_reg_23_22 src_reg_23_252)
                 (= src_reg_23_23 src_reg_23_253)
                 (= src_reg_23_24 src_reg_23_254)
                 (= src_reg_23_25 src_reg_23_255)
                 (= src_reg_23_26 src_reg_23_256)
                 (= src_reg_23_27 src_reg_23_257)
                 (= src_reg_23_28 src_reg_23_258)
                 (= src_reg_23_29 src_reg_23_259)
                 (= src_reg_23_30 src_reg_23_260)
                 (= src_reg_23_31 src_reg_23_261)
                 (= src_reg_23_32 src_reg_23_262)
                 (= src_reg_23_33 src_reg_23_263)
                 (= src_reg_23_34 src_reg_23_264)
                 (= src_reg_23_35 src_reg_23_265)
                 (= #x00000001 dst_reg_23_230)
                 (= dst_reg_23_1 dst_reg_23_231)
                 (= #x0000000000000000 dst_reg_23_232)
                 (= #xffffffffffffffff dst_reg_23_233)
                 (= #x8000000000000000 dst_reg_23_234)
                 (= #x7fffffffffffffff dst_reg_23_235)
                 (= #x0000000000000000 dst_reg_23_236)
                 (= #xffffffffffffffff dst_reg_23_237)
                 (= #x80000000 dst_reg_23_238)
                 (= #x7fffffff dst_reg_23_239)
                 (= #x00000000 dst_reg_23_240)
                 (= #xffffffff dst_reg_23_241)
                 (= #x00000000 dst_reg_23_242)
                 (= #x00000000 dst_reg_23_243)
                 (= #x00000000 dst_reg_23_244)
                 (= dst_reg_23_15 dst_reg_23_245)
                 (= dst_reg_23_16 dst_reg_23_246)
                 (= #x01 dst_reg_23_247)))
      (a!16 (=> (and (= or.cond81.i_23_56 #b0) (= tobool.not.i.i_23_47 #b1))
                (and (ite (bvult src_reg1.sroa.45.0.copyload_23_38
                                 #x0000000000000020)
                          (= cmp125.not.i_23_92 #b1)
                          (= cmp125.not.i_23_92 #b0))))))
(let ((a!3 (=> a!2
               (and (= dst_reg_23_8 i13.i909.i_23_104)
                    (= shr.i910.i_23_105
                       (bvashr i13.i909.i_23_104
                               src_reg1.sroa.62.0.copyload_23_41))
                    (= dst_reg_23_9 i14.i912.i_23_106)
                    (= shr3.i.i_23_107
                       (bvashr i14.i912.i_23_106
                               src_reg1.sroa.62.0.copyload_23_41))
                    (= dst_reg_23_2 i16.i914.i_23_108)
                    (= dst_reg_23_3 i18.i916.i_23_109)
                    (= conv3.i.i.i_23_110 ((_ extract 31 0) i16.i914.i_23_108))
                    (= conv4.i.i.i_23_112
                       (bvand src_reg1.sroa.62.0.copyload_23_41 #x000000ff))
                    (= shr.i.i921.i_23_113
                       (bvashr conv3.i.i.i_23_110 conv4.i.i.i_23_112))
                    (= conv5.i.i.i_23_114
                       ((_ zero_extend 32) shr.i.i921.i_23_113))
                    (= conv7.i.i922.i_23_115
                       ((_ extract 31 0) i18.i916.i_23_109))
                    (= shr9.i.i.i_23_116
                       (bvashr conv7.i.i922.i_23_115 conv4.i.i.i_23_112))
                    (= conv10.i.i.i_23_117
                       ((_ zero_extend 32) shr9.i.i.i_23_116))
                    (= and.i.i940.i_23_125 (bvand shr9.i.i.i_23_116 #x80000000))
                    (= or.i.i941.i_23_126
                       (bvor and.i.i940.i_23_125 shr.i.i921.i_23_113))
                    (ite (bvsgt shr.i910.i_23_105 or.i.i941.i_23_126)
                         (= cmp.i.i943.i_23_127 #b1)
                         (= cmp.i.i943.i_23_127 #b0))
                    (ite (= cmp.i.i943.i_23_127 #b1)
                         (= cond.i.i944.i_23_128 shr.i910.i_23_105)
                         (= cond.i.i944.i_23_128 or.i.i941.i_23_126))
                    (= and5.i.i947.i_23_130
                       (bvand shr9.i.i.i_23_116 #x7fffffff))
                    (= or6.i.i948.i_23_131
                       (bvor and5.i.i947.i_23_130 shr.i.i921.i_23_113))
                    (ite (bvslt shr3.i.i_23_107 or6.i.i948.i_23_131)
                         (= cmp9.i.i949.i_23_132 #b1)
                         (= cmp9.i.i949.i_23_132 #b0))
                    (ite (= cmp9.i.i949.i_23_132 #b1)
                         (= cond14.i.i950.i_23_133 shr3.i.i_23_107)
                         (= cond14.i.i950.i_23_133 or6.i.i948.i_23_131))
                    (= and.i.i.i.i934.i3132_23_134
                       (bvor shr9.i.i.i_23_116 shr.i.i921.i_23_113)))))
      (a!6 (and (= cmp.i1.i.i.i_23_186 #b1)
                (and (= cmp.i.i.i1065.i_23_183 #b1) (or a!2 a!5))))
      (a!8 (and (= dst_reg_23_137 i4.i.i_23_171)
                (= dst_reg_23_138 i6.i.i_23_172)
                (= and.i.i.i1052.i_23_174
                   (bvand i4.i.i_23_171 #x00000000ffffffff))
                (= and6.i.i.i1053.i_23_176
                   (bvand i6.i.i_23_172 #x00000000ffffffff))
                (= dst_reg_23_145 i.i.i1057.i_23_177)
                (= conv.i.i1058.i_23_178
                   ((_ zero_extend 32) i.i.i1057.i_23_177))
                (= dst_reg_23_146 i12.i.i1061.i_23_179)
                (= conv1.i.i.i_23_180 ((_ zero_extend 32) i12.i.i1061.i_23_179))
                (= dst_reg_23_143 i13.i.i1064.i_23_181)
                (ite (bvsgt i13.i.i1064.i_23_181 #xffffffff)
                     (= cmp.i.i.i1065.i_23_183 #b1)
                     (= cmp.i.i.i1065.i_23_183 #b0))
                (=> a!2
                    (and (= #x00000001 src_reg_23_153)
                         (= src_reg_23_19 src_reg_23_154)
                         (= src_reg_23_20 src_reg_23_155)
                         (= src_reg_23_21 src_reg_23_156)
                         (= src_reg_23_22 src_reg_23_157)
                         (= src_reg_23_23 src_reg_23_158)
                         (= src_reg_23_24 src_reg_23_159)
                         (= src_reg_23_25 src_reg_23_160)
                         (= src_reg_23_26 src_reg_23_161)
                         (= src_reg_23_27 src_reg_23_162)
                         (= src_reg_23_28 src_reg_23_163)
                         (= src_reg_23_29 src_reg_23_164)
                         (= src_reg_23_30 src_reg_23_165)
                         (= src_reg_23_31 src_reg_23_166)
                         (= src_reg_23_32 src_reg_23_167)
                         (= src_reg_23_33 src_reg_23_168)
                         (= src_reg_23_34 src_reg_23_169)
                         (= src_reg_23_35 src_reg_23_170)
                         (= #x00000001 dst_reg_23_135)
                         (= dst_reg_23_1 dst_reg_23_136)
                         (= conv5.i.i.i_23_114 dst_reg_23_137)
                         (= conv10.i.i.i_23_117 dst_reg_23_138)
                         (= #x8000000000000000 dst_reg_23_139)
                         (= #x7fffffffffffffff dst_reg_23_140)
                         (= #x0000000000000000 dst_reg_23_141)
                         (= #xffffffffffffffff dst_reg_23_142)
                         (= cond.i.i944.i_23_128 dst_reg_23_143)
                         (= cond14.i.i950.i_23_133 dst_reg_23_144)
                         (= shr.i.i921.i_23_113 dst_reg_23_145)
                         (= and.i.i.i.i934.i3132_23_134 dst_reg_23_146)
                         (= dst_reg_23_12 dst_reg_23_147)
                         (= dst_reg_23_13 dst_reg_23_148)
                         (= dst_reg_23_14 dst_reg_23_149)
                         (= dst_reg_23_15 dst_reg_23_150)
                         (= dst_reg_23_16 dst_reg_23_151)
                         (= dst_reg_23_17 dst_reg_23_152)))
                (=> a!5
                    (and (= #x00000001 src_reg_23_153)
                         (= src_reg_23_19 src_reg_23_154)
                         (= src_reg_23_20 src_reg_23_155)
                         (= src_reg_23_21 src_reg_23_156)
                         (= src_reg_23_22 src_reg_23_157)
                         (= src_reg_23_23 src_reg_23_158)
                         (= src_reg_23_24 src_reg_23_159)
                         (= src_reg_23_25 src_reg_23_160)
                         (= src_reg_23_26 src_reg_23_161)
                         (= src_reg_23_27 src_reg_23_162)
                         (= src_reg_23_28 src_reg_23_163)
                         (= src_reg_23_29 src_reg_23_164)
                         (= src_reg_23_30 src_reg_23_165)
                         (= src_reg_23_31 src_reg_23_166)
                         (= src_reg_23_32 src_reg_23_167)
                         (= src_reg_23_33 src_reg_23_168)
                         (= src_reg_23_34 src_reg_23_169)
                         (= src_reg_23_35 src_reg_23_170)
                         (= #x00000001 dst_reg_23_135)
                         (= dst_reg_23_1 dst_reg_23_136)
                         (= #x0000000000000000 dst_reg_23_137)
                         (= #xffffffffffffffff dst_reg_23_138)
                         (= #x8000000000000000 dst_reg_23_139)
                         (= #x7fffffffffffffff dst_reg_23_140)
                         (= #x0000000000000000 dst_reg_23_141)
                         (= #xffffffffffffffff dst_reg_23_142)
                         (= #x80000000 dst_reg_23_143)
                         (= #x7fffffff dst_reg_23_144)
                         (= #x00000000 dst_reg_23_145)
                         (= #xffffffff dst_reg_23_146)
                         (= dst_reg_23_12 dst_reg_23_147)
                         (= dst_reg_23_13 dst_reg_23_148)
                         (= dst_reg_23_14 dst_reg_23_149)
                         (= dst_reg_23_15 dst_reg_23_150)
                         (= dst_reg_23_16 dst_reg_23_151)
                         (= dst_reg_23_17 dst_reg_23_152)))))
      (a!9 (=> (and (= cmp.i.i.i1065.i_23_183 #b1) (or a!2 a!5))
               (and (= dst_reg_23_144 i14.i.i.i_23_184)
                    (ite (bvsgt i14.i.i.i_23_184 #xffffffff)
                         (= cmp.i1.i.i.i_23_186 #b1)
                         (= cmp.i1.i.i.i_23_186 #b0)))))
      (a!10 (or (and (= cmp.i1.i.i.i_23_186 #b0)
                     (and (= cmp.i.i.i1065.i_23_183 #b1) (or a!2 a!5)))
                (and (= cmp.i.i.i1065.i_23_183 #b0) (or a!2 a!5)))))
(let ((a!7 (=> a!6
               (and (= conv6.i.i.i_23_187
                       ((_ sign_extend 32) i13.i.i1064.i_23_181))
                    (= conv8.i.i.i_23_188 ((_ sign_extend 32) i14.i.i.i_23_184)))))
      (a!11 (and (=> if.else.i.i1069.i_zext_32_to_64.exit.i_23_226
                     (= .sink.i.i1070.i_23_228 #x00000000ffffffff))
                 (=> if.then.i.i1068.i_zext_32_to_64.exit.i_23_227
                     (= .sink.i.i1070.i_23_228 conv8.i.i.i_23_188))
                 (=> a!6
                     (and (= src_reg_23_153 src_reg_23_208)
                          (= src_reg_23_154 src_reg_23_209)
                          (= src_reg_23_155 src_reg_23_210)
                          (= src_reg_23_156 src_reg_23_211)
                          (= src_reg_23_157 src_reg_23_212)
                          (= src_reg_23_158 src_reg_23_213)
                          (= src_reg_23_159 src_reg_23_214)
                          (= src_reg_23_160 src_reg_23_215)
                          (= src_reg_23_161 src_reg_23_216)
                          (= src_reg_23_162 src_reg_23_217)
                          (= src_reg_23_163 src_reg_23_218)
                          (= src_reg_23_164 src_reg_23_219)
                          (= src_reg_23_165 src_reg_23_220)
                          (= src_reg_23_166 src_reg_23_221)
                          (= src_reg_23_167 src_reg_23_222)
                          (= src_reg_23_168 src_reg_23_223)
                          (= src_reg_23_169 src_reg_23_224)
                          (= src_reg_23_170 src_reg_23_225)
                          (= dst_reg_23_135 dst_reg_23_190)
                          (= dst_reg_23_136 dst_reg_23_191)
                          (= and.i.i.i1052.i_23_174 dst_reg_23_192)
                          (= and6.i.i.i1053.i_23_176 dst_reg_23_193)
                          (= conv6.i.i.i_23_187 dst_reg_23_194)
                          (= dst_reg_23_140 dst_reg_23_195)
                          (= conv.i.i1058.i_23_178 dst_reg_23_196)
                          (= conv1.i.i.i_23_180 dst_reg_23_197)
                          (= dst_reg_23_143 dst_reg_23_198)
                          (= dst_reg_23_144 dst_reg_23_199)
                          (= dst_reg_23_145 dst_reg_23_200)
                          (= dst_reg_23_146 dst_reg_23_201)
                          (= dst_reg_23_147 dst_reg_23_202)
                          (= dst_reg_23_148 dst_reg_23_203)
                          (= dst_reg_23_149 dst_reg_23_204)
                          (= dst_reg_23_150 dst_reg_23_205)
                          (= dst_reg_23_151 dst_reg_23_206)
                          (= dst_reg_23_152 dst_reg_23_207)))
                 (=> a!10
                     (and (= src_reg_23_153 src_reg_23_208)
                          (= src_reg_23_154 src_reg_23_209)
                          (= src_reg_23_155 src_reg_23_210)
                          (= src_reg_23_156 src_reg_23_211)
                          (= src_reg_23_157 src_reg_23_212)
                          (= src_reg_23_158 src_reg_23_213)
                          (= src_reg_23_159 src_reg_23_214)
                          (= src_reg_23_160 src_reg_23_215)
                          (= src_reg_23_161 src_reg_23_216)
                          (= src_reg_23_162 src_reg_23_217)
                          (= src_reg_23_163 src_reg_23_218)
                          (= src_reg_23_164 src_reg_23_219)
                          (= src_reg_23_165 src_reg_23_220)
                          (= src_reg_23_166 src_reg_23_221)
                          (= src_reg_23_167 src_reg_23_222)
                          (= src_reg_23_168 src_reg_23_223)
                          (= src_reg_23_169 src_reg_23_224)
                          (= src_reg_23_170 src_reg_23_225)
                          (= dst_reg_23_135 dst_reg_23_190)
                          (= dst_reg_23_136 dst_reg_23_191)
                          (= and.i.i.i1052.i_23_174 dst_reg_23_192)
                          (= and6.i.i.i1053.i_23_176 dst_reg_23_193)
                          (= #x0000000000000000 dst_reg_23_194)
                          (= dst_reg_23_140 dst_reg_23_195)
                          (= conv.i.i1058.i_23_178 dst_reg_23_196)
                          (= conv1.i.i.i_23_180 dst_reg_23_197)
                          (= dst_reg_23_143 dst_reg_23_198)
                          (= dst_reg_23_144 dst_reg_23_199)
                          (= dst_reg_23_145 dst_reg_23_200)
                          (= dst_reg_23_146 dst_reg_23_201)
                          (= dst_reg_23_147 dst_reg_23_202)
                          (= dst_reg_23_148 dst_reg_23_203)
                          (= dst_reg_23_149 dst_reg_23_204)
                          (= dst_reg_23_150 dst_reg_23_205)
                          (= dst_reg_23_151 dst_reg_23_206)
                          (= dst_reg_23_152 dst_reg_23_207)))
                 (= if.else.i.i1069.i_zext_32_to_64.exit.i_23_226 a!10)
                 (= if.then.i.i1068.i_zext_32_to_64.exit.i_23_227 a!6)))
      (a!14 (and (=> (or a!10 a!6)
                     (and (= src_reg_23_208 src_reg_23_248)
                          (= src_reg_23_209 src_reg_23_249)
                          (= src_reg_23_210 src_reg_23_250)
                          (= src_reg_23_211 src_reg_23_251)
                          (= src_reg_23_212 src_reg_23_252)
                          (= src_reg_23_213 src_reg_23_253)
                          (= src_reg_23_214 src_reg_23_254)
                          (= src_reg_23_215 src_reg_23_255)
                          (= src_reg_23_216 src_reg_23_256)
                          (= src_reg_23_217 src_reg_23_257)
                          (= src_reg_23_218 src_reg_23_258)
                          (= src_reg_23_219 src_reg_23_259)
                          (= src_reg_23_220 src_reg_23_260)
                          (= src_reg_23_221 src_reg_23_261)
                          (= src_reg_23_222 src_reg_23_262)
                          (= src_reg_23_223 src_reg_23_263)
                          (= src_reg_23_224 src_reg_23_264)
                          (= src_reg_23_225 src_reg_23_265)
                          (= dst_reg_23_190 dst_reg_23_230)
                          (= dst_reg_23_191 dst_reg_23_231)
                          (= dst_reg_23_192 dst_reg_23_232)
                          (= dst_reg_23_193 dst_reg_23_233)
                          (= dst_reg_23_194 dst_reg_23_234)
                          (= .sink.i.i1070.i_23_228 dst_reg_23_235)
                          (= dst_reg_23_196 dst_reg_23_236)
                          (= dst_reg_23_197 dst_reg_23_237)
                          (= dst_reg_23_198 dst_reg_23_238)
                          (= dst_reg_23_199 dst_reg_23_239)
                          (= dst_reg_23_200 dst_reg_23_240)
                          (= dst_reg_23_201 dst_reg_23_241)
                          (= dst_reg_23_202 dst_reg_23_242)
                          (= dst_reg_23_203 dst_reg_23_243)
                          (= dst_reg_23_204 dst_reg_23_244)
                          (= dst_reg_23_205 dst_reg_23_245)
                          (= dst_reg_23_206 dst_reg_23_246)
                          (= dst_reg_23_207 dst_reg_23_247)))
                 (=> a!12 a!13)
                 (=> (and (= or.cond82.i_23_60 #b0)
                          (= tobool.not.i.i_23_47 #b0))
                     a!13)
                 (= dst_reg_23_230 dst_reg_23_266)
                 (= dst_reg_23_231 dst_reg_23_267)
                 (= dst_reg_23_232 dst_reg_23_268)
                 (= dst_reg_23_233 dst_reg_23_269)
                 (= dst_reg_23_234 dst_reg_23_270)
                 (= dst_reg_23_235 dst_reg_23_271)
                 (= dst_reg_23_236 dst_reg_23_272)
                 (= dst_reg_23_237 dst_reg_23_273)
                 (= dst_reg_23_238 dst_reg_23_274)
                 (= dst_reg_23_239 dst_reg_23_275)
                 (= dst_reg_23_240 dst_reg_23_276)
                 (= dst_reg_23_241 dst_reg_23_277)
                 (= dst_reg_23_242 dst_reg_23_278)
                 (= dst_reg_23_243 dst_reg_23_279)
                 (= dst_reg_23_244 dst_reg_23_280)
                 (= dst_reg_23_245 dst_reg_23_281)
                 (= dst_reg_23_246 dst_reg_23_282)
                 (= dst_reg_23_247 dst_reg_23_283)
                 (= src_reg_23_248 src_reg_23_284)
                 (= src_reg_23_249 src_reg_23_285)
                 (= src_reg_23_250 src_reg_23_286)
                 (= src_reg_23_251 src_reg_23_287)
                 (= src_reg_23_252 src_reg_23_288)
                 (= src_reg_23_253 src_reg_23_289)
                 (= src_reg_23_254 src_reg_23_290)
                 (= src_reg_23_255 src_reg_23_291)
                 (= src_reg_23_256 src_reg_23_292)
                 (= src_reg_23_257 src_reg_23_293)
                 (= src_reg_23_258 src_reg_23_294)
                 (= src_reg_23_259 src_reg_23_295)
                 (= src_reg_23_260 src_reg_23_296)
                 (= src_reg_23_261 src_reg_23_297)
                 (= src_reg_23_262 src_reg_23_298)
                 (= src_reg_23_263 src_reg_23_299)
                 (= src_reg_23_264 src_reg_23_300)
                 (= src_reg_23_265 src_reg_23_301))))
(let ((a!15 (=> (or (or a!10 a!6)
                    (and (= or.cond82.i_23_60 #b0) (= tobool.not.i.i_23_47 #b0))
                    a!12)
                a!14)))
  (and (= dst_reg_23_0 dst_reg_23_0)
       (= dst_reg_23_1 dst_reg_23_1)
       (= dst_reg_23_2 dst_reg_23_2)
       (= dst_reg_23_3 dst_reg_23_3)
       (= dst_reg_23_4 dst_reg_23_4)
       (= dst_reg_23_5 dst_reg_23_5)
       (= dst_reg_23_6 dst_reg_23_6)
       (= dst_reg_23_7 dst_reg_23_7)
       (= dst_reg_23_8 dst_reg_23_8)
       (= dst_reg_23_9 dst_reg_23_9)
       (= dst_reg_23_10 dst_reg_23_10)
       (= dst_reg_23_11 dst_reg_23_11)
       (= dst_reg_23_12 dst_reg_23_12)
       (= dst_reg_23_13 dst_reg_23_13)
       (= dst_reg_23_14 dst_reg_23_14)
       (= dst_reg_23_15 dst_reg_23_15)
       (= dst_reg_23_16 dst_reg_23_16)
       (= dst_reg_23_17 dst_reg_23_17)
       (= src_reg_23_18 src_reg_23_18)
       (= src_reg_23_19 src_reg_23_19)
       (= src_reg_23_20 src_reg_23_20)
       (= src_reg_23_21 src_reg_23_21)
       (= src_reg_23_22 src_reg_23_22)
       (= src_reg_23_23 src_reg_23_23)
       (= src_reg_23_24 src_reg_23_24)
       (= src_reg_23_25 src_reg_23_25)
       (= src_reg_23_26 src_reg_23_26)
       (= src_reg_23_27 src_reg_23_27)
       (= src_reg_23_28 src_reg_23_28)
       (= src_reg_23_29 src_reg_23_29)
       (= src_reg_23_30 src_reg_23_30)
       (= src_reg_23_31 src_reg_23_31)
       (= src_reg_23_32 src_reg_23_32)
       (= src_reg_23_33 src_reg_23_33)
       (= src_reg_23_34 src_reg_23_34)
       (= src_reg_23_35 src_reg_23_35)
       (= src_reg_23_25 src_reg1.sroa.45.0.copyload_23_38)
       (= src_reg_23_26 src_reg1.sroa.52.0.copyload_23_39)
       (= src_reg_23_27 src_reg1.sroa.59.0.copyload_23_40)
       (= src_reg_23_28 src_reg1.sroa.62.0.copyload_23_41)
       (= src_reg_23_29 src_reg1.sroa.70.0.copyload_23_42)
       (= src_reg_23_21 src_reg1.sroa.13.0.copyload_23_43)
       (= and6.i.i.i.i_23_45
          (bvand src_reg1.sroa.13.0.copyload_23_43 #x00000000ffffffff))
       (ite (= and6.i.i.i.i_23_45 #x0000000000000000)
            (= tobool.not.i.i_23_47 #b1)
            (= tobool.not.i.i_23_47 #b0))
       a!1
       a!3
       a!4
       a!7
       (=> (or a!2 a!5) a!8)
       a!9
       (=> (or a!10 a!6) a!11)
       a!15
       a!16))))))

;{"dst_reg":["dst_reg_23_0","dst_reg_23_1",[""],["dst_reg_23_2","dst_reg_23_3"],"dst_reg_23_4","dst_reg_23_5","dst_reg_23_6","dst_reg_23_7","dst_reg_23_8","dst_reg_23_9","dst_reg_23_10","dst_reg_23_11","dst_reg_23_12","dst_reg_23_13","","","dst_reg_23_14","dst_reg_23_15","dst_reg_23_16"],"src_reg":["src_reg_23_18","src_reg_23_19",[""],["src_reg_23_20","src_reg_23_21"],"src_reg_23_22","src_reg_23_23","src_reg_23_24","src_reg_23_25","src_reg_23_26","src_reg_23_27","src_reg_23_28","src_reg_23_29","src_reg_23_30","src_reg_23_31","","","src_reg_23_32","src_reg_23_33","src_reg_23_34"]}
;{"dst_reg":["dst_reg_23_266","dst_reg_23_267",[""],["dst_reg_23_268","dst_reg_23_269"],"dst_reg_23_270","dst_reg_23_271","dst_reg_23_272","dst_reg_23_273","dst_reg_23_274","dst_reg_23_275","dst_reg_23_276","dst_reg_23_277","dst_reg_23_278","dst_reg_23_279","","","dst_reg_23_280","dst_reg_23_281","dst_reg_23_282"],"src_reg":["src_reg_23_284","src_reg_23_285",[""],["src_reg_23_286","src_reg_23_287"],"src_reg_23_288","src_reg_23_289","src_reg_23_290","src_reg_23_291","src_reg_23_292","src_reg_23_293","src_reg_23_294","src_reg_23_295","src_reg_23_296","src_reg_23_297","","","src_reg_23_298","src_reg_23_299","src_reg_23_300"]}
